
Gurobi 6.5.2 (linux64) logging started Tue Sep  6 10:06:20 2016

Optimize a model with 101 rows, 663 columns and 1327 nonzeros
Coefficient statistics:
  Matrix range    [1e+00, 2e+00]
  Objective range [1e+00, 1e+02]
  Bounds range    [1e+00, 1e+00]
  RHS range       [1e+00, 1e+00]
Presolve removed 51 rows and 50 columns
Presolve time: 0.00s
Presolved: 50 rows, 613 columns, 1226 nonzeros
Variable types: 0 continuous, 613 integer (613 binary)

Root relaxation: objective 7.225000e+02, 74 iterations, 0.00 seconds

    Nodes    |    Current Node    |     Objective Bounds      |     Work
 Expl Unexpl |  Obj  Depth IntInf | Incumbent    BestBd   Gap | It/Node Time

     0     0  722.50000    0   16          -  722.50000      -     -    0s
H    0     0                    1341.0000000  722.50000  46.1%     -    0s
     0     0  724.25000    0    8 1341.00000  724.25000  46.0%     -    0s
     0     0  724.25000    0    8 1341.00000  724.25000  46.0%     -    0s
     0     2  724.25000    0    8 1341.00000  724.25000  46.0%     -    0s
*   33    17              25     746.0000000  725.15789  2.79%   4.1    0s
* 1000   344              27     741.0000000  726.00000  2.02%   4.2    0s

Cutting planes:
  Zero half: 4
  Lazy constraints: 194

Explored 2667 nodes (9555 simplex iterations) in 0.32 seconds
Thread count was 8 (of 8 available processors)

Optimal solution found (tolerance 1.00e-04)
Best objective 7.410000000000e+02, best bound 7.410000000000e+02, gap 0.0%
